NAME : amtsp
TYPE : ATSP
DIMENSION : 5
EDGE_WEIGHT_TYPE : EXPLICIT
EDGE_WEIGHT_FORMAT : FULL_MATRIX
EDGE_WEIGHT_SECTION
100000 -100000 100000 100000 100000 
100000 100000 258 381 100000 
0 0 100000 161 10000 
0 0 161 100000 10000 
-100000 100000 10000 10000 100000 
